11
0  19  85  42  31  67  13  58  21  77  30
44  0  23  60  17  54  29  12  69  35  18
66  32  0  55  23  40  71  14  48  26  61
21  72  36  0  59  33  11  80  27  50  18
53  20  65  31  0  42  77  15  28  61  39
12  48  27  70  36  0  65  29  18  44  53
38  25  42  16  55  21  0  67  32  19  41
57  14  61  33  27  45  12  0  49  30  68
24  69  17  50  31  60  28  42  0  55  13
66  22  54  19  41  35  59  21  37  0  44
31  45  20  63  29  18  50  12  58  22  0